c testing file: myTests/100.410.1010795163.cnf
s SATISFIABLE
v -1 2 -3 4 -5 6 7 8 9 10 12 -13 -14 -16 18 -19 -20 -21 -22 -23 24 25 -26 27 28 -29 -30 31 32 33 -34 35 -37 -38 39 -41 42 43 -44 45 -46 -47 -48 49 -50 51 52 -53 -55 -56 -57 58 -59 -60 61 62 -63 -64 65 -66 -67 -68 -69 -70 71 72 -73 74 75 -76 -77 78 79 80 81 -82 -83 -84 85 86 87 88 89 -91 -92 -93 -94 -95 96 -97 -98 99 100

real	0m8.926s
user	0m8.888s
sys	0m0.012s

c testing file: myTests/100.420.1182894637.cnf
s SATISFIABLE
v 1 2 -3 4 -5 -6 -7 -8 -9 -10 11 12 13 -14 -15 16 17 18 -19 20 21 -22 23 -24 -25 26 27 28 29 -30 31 32 33 -34 -35 -36 37 -38 39 -40 41 -42 43 44 -45 -46 47 48 -49 -50 -51 -52 53 -54 -55 56 -57 -58 59 60 61 62 63 65 66 67 68 69 70 71 -72 -73 -75 -76 -78 -79 -80 -81 -82 -83 -84 85 -86 -87 -88 89 -90 91 -92 93 -94 -95 -97 -98 99 -100

real	2m19.118s
user	1m51.612s
sys	0m0.160s

c testing file: myTests/100.430.11841216.cnf
UNSATISFIABLE

real	6m56.405s
user	4m40.420s
sys	0m0.228s

c testing file: myTests/100.440.1369153400.cnf
UNSATISFIABLE

real	4m33.112s
user	2m58.372s
sys	0m0.132s

c testing file: myTests/100.450.1367308746.cnf
UNSATISFIABLE

real	3m7.115s
user	2m3.232s
sys	0m0.088s

c testing file: myTests/100.460.152641495.cnf
UNSATISFIABLE

real	3m35.469s
user	1m49.356s
sys	0m0.120s

c testing file: myTests/10.44.0.cnf
UNSATISFIABLE

real	0m0.145s
user	0m0.056s
sys	0m0.012s

c testing file: myTests/5.3.0.cnf
s SATISFIABLE
v 1 -3 5

real	0m0.131s
user	0m0.048s
sys	0m0.008s

